&control
   prefix = 'C111'
   calculation = 'relax'
   tstress = .true.
   etot_conv_thr = 1d-5
   forc_conv_thr = 1d-4
   pseudo_dir = './'
   outdir ='./'
/
&system
   ibrav = 8
   celldm(1) = 9.534114
   celldm(2) = 1.0 
   celldm(3) = 1.224745 
   nat = 16
   nspin = 2 
   occupations = 'smearing'
   smearing = 'mv'
   degauss = 0.05
   starting_magnetization(2) = 0.1
   ntyp = 2
   ecutwfc = 40
   /
&electrons
   electron_maxstep = 100
   conv_thr = 1.0d-8
   mixing_mode = 'plain'
   mixing_beta = 0.7
   mixing_ndim = 8
   diagonalization = 'david'
   diago_david_ndim = 4
   diago_full_acc = .true.
/
&ions
/
ATOMIC_SPECIES
  C   12.011 'C.pbe-n-rrkjus_psl.0.1.UPF' 
  N   14.007  'N.pbe-n-rrkjus_psl.0.1.UPF'
ATOMIC_POSITIONS alat
C      0.0000000    0.0000000    0.0000000
C     -0.0000000    0.5000000    0.0000000
C      0.5000000   -0.0000000    0.0000000
C      0.5000000    0.5000000    0.0000000
C      0.2500000    0.2500000    0.6123724
C      0.2500000    0.7500000    0.6123724
C      0.7500000    0.2500000    0.6123724
C      0.7500000    0.7500000    0.6123724
C      0.0000000   -0.0000000    0.3061862
C     -0.0000000    0.5000000    0.3061862
C      0.5000000    0.0000000    0.3061862
C      0.5000000    0.5000000    0.3061862
C      0.2500000    0.2500000    0.9185587
C      0.2500000    0.7500000    0.9185587
C      0.7500000    0.2500000    0.9185587
C      0.7500000    0.7500000    0.9185587
K_POINTS automatic
4 4 4 0 0 0

